<number of tasks>
50

<cycle time>
1000

<order strength>
0.596


<task times>
1 65
2 251
3 59
4 85
5 149
6 83
7 114
8 105
9 34
10 465
11 43
12 196
13 279
14 156
15 212
16 284
17 344
18 32
19 545
20 394
21 528
22 28
23 182
24 96
25 108
26 157
27 389
28 80
29 247
30 504
31 523
32 237
33 363
34 92
35 83
36 210
37 504
38 582
39 84
40 502
41 54
42 218
43 415
44 310
45 63
46 173
47 322
48 498
49 164
50 571

<precedence relations>
1,5
2,7
3,6
3,10
4,8
4,9
4,10
5,11
6,12
7,13
8,14
8,15
8,16
8,17
9,15
9,16
9,17
10,15
10,16
10,17
11,20
12,21
13,18
14,19
15,21
15,22
16,21
16,22
17,21
17,22
18,25
19,23
20,24
21,25
21,26
21,27
22,25
22,26
22,27
23,30
24,29
25,30
25,31
26,28
26,30
26,31
27,30
27,31
28,33
29,34
30,32
30,34
30,35
30,36
31,34
31,41
32,37
33,38
34,39
35,38
35,42
36,38
37,40
38,41
38,43
39,42
39,43
39,46
40,44
41,45
41,46
42,47
42,48
42,50
43,47
43,48
44,50
45,49
46,50

<end>
